NAME : n80w160.003.521.tour
COMMENT : Length = 521
COMMENT : Found by LKH [Keld Helsgaun] Tue May  2 05:19:07 2017
TYPE : TOUR
DIMENSION : 81
TOUR_SECTION
1
41
53
62
68
49
52
16
80
13
23
42
30
66
38
6
44
3
4
35
64
79
45
63
59
51
25
61
24
9
76
69
74
27
5
14
26
15
40
73
57
17
36
21
19
50
31
54
32
67
47
60
75
34
58
56
72
20
70
48
71
29
2
10
8
7
33
43
55
12
37
77
28
39
46
18
81
78
65
22
11
-1
EOF
